Maximize
	+ 4 x2 + 6 x3 + 6 x4 
Maximize
	+ 6 x2 + 2 x3 + 5 x4 
Maximize
	+ 3 x1 - 4 x2 + 4 x4 
Maximize
	+ 4 x1 + 6 x2 - 2 x3 
Subject To
	+ 6 x1 + 5 x3 - 3 x4 <= 7
Bounds
	0 <= x1 <= 4
	0 <= x2 <= 4
	0 <= x3 <= 4
	0 <= x4 <= 4
Integers
	x1 x2 x3 x4 
End